2025-03-05 23:40:58,035 - INFO - Set parameter WLSAccessID
2025-03-05 23:40:58,035 - INFO - Set parameter WLSSecret
2025-03-05 23:40:58,035 - INFO - Set parameter LicenseID to value 2628134
2025-03-05 23:40:58,290 - INFO - Academic license 2628134 - for non-commercial use only - registered to bs___@uw.edu
2025-03-05 23:40:58,291 - INFO - Initialization complete
2025-03-05 23:41:08,257 - INFO - Variables created successfully
2025-03-05 23:42:23,690 - INFO - Constraints added successfully
2025-03-05 23:42:23,722 - INFO - Objective function with soft constraints set successfully
2025-03-05 23:42:24,327 - INFO - ================================================================================
2025-03-05 23:42:24,327 - INFO - SYSTEM CONFIGURATION
2025-03-05 23:42:24,327 - INFO - System has 373.7 GB of RAM available
2025-03-05 23:42:24,327 - INFO - Setting Gurobi memory limit to 355 GB (95% of available RAM)
2025-03-05 23:42:24,327 - INFO - Set parameter MemLimit to value 363520
2025-03-05 23:42:24,327 - INFO - Set parameter Presolve to value 1
2025-03-05 23:42:24,327 - INFO - Set parameter Method to value 1
2025-03-05 23:42:24,327 - INFO - Set parameter MIPFocus to value 1
2025-03-05 23:42:24,327 - INFO - Set parameter MIPGap to value 0.1
2025-03-05 23:42:24,328 - INFO - Set parameter TimeLimit to value 25200
2025-03-05 23:42:24,328 - INFO - Set parameter NodefileStart to value 0.95
2025-03-05 23:42:24,328 - INFO - Set parameter NodefileDir to value "/tmp/gurobi_nodefiles"
2025-03-05 23:42:24,328 - INFO - Node file directory: /tmp/gurobi_nodefiles
2025-03-05 23:42:24,328 - INFO - Will switch to disk storage when memory reaches 95.0% of allocated RAM
2025-03-05 23:42:24,329 - INFO - Set parameter Threads to value 32
2025-03-05 23:42:24,329 - INFO - Using 32 threads out of 48 available cores
2025-03-05 23:42:24,329 - INFO - Generating initial solution using advanced greedy algorithm...
2025-03-05 23:42:53,662 - INFO - Greedy algorithm generated initial values for: 7696 x vars, 411 z vars, 7696 y vars
2025-03-05 23:42:53,713 - INFO - Initial solution: 7696/1600 students assigned, 411/411 sections used
2025-03-05 23:42:53,713 - INFO - ================================================================================
2025-03-05 23:42:53,713 - INFO - STARTING OPTIMIZATION
2025-03-05 23:42:53,713 - INFO - Maximum possible satisfied requests: 9600
2025-03-05 23:42:53,713 - INFO - ================================================================================
2025-03-05 23:42:55,587 - INFO - Gurobi Optimizer version 10.0.3 build v10.0.3rc0 (linux64)
2025-03-05 23:42:55,587 - INFO - 
2025-03-05 23:42:55,587 - INFO - CPU model: Intel(R) Xeon(R) Platinum 8259CL CPU @ 2.50GHz, instruction set [SSE2|AVX|AVX2|AVX512]
2025-03-05 23:42:55,587 - INFO - Thread count: 24 physical cores, 48 logical processors, using up to 32 threads
2025-03-05 23:42:55,587 - INFO - 
2025-03-05 23:42:55,589 - INFO - Academic license 2628134 - for non-commercial use only - registered to bs___@uw.edu
2025-03-05 23:42:55,589 - INFO - Optimize a model with 6484825 rows, 2435835 columns and 17781723 nonzeros
2025-03-05 23:42:55,806 - INFO - Model fingerprint: 0xec1bb5f4
2025-03-05 23:42:55,809 - INFO - Variable types: 0 continuous, 2435835 integer (2435424 binary)
2025-03-05 23:42:55,846 - INFO - Coefficient statistics:
2025-03-05 23:42:55,846 - INFO -   Matrix range     [1e+00, 1e+00]
2025-03-05 23:42:55,846 - INFO -   Objective range  [1e+00, 1e+03]
2025-03-05 23:42:55,846 - INFO -   Bounds range     [1e+00, 1e+00]
2025-03-05 23:42:55,846 - INFO -   RHS range        [1e+00, 4e+01]
2025-03-05 23:42:55,846 - INFO - 
2025-03-05 23:42:55,897 - INFO - Warning: Completing partial solution with 2420032 unfixed non-continuous variables out of 2435835
2025-03-05 23:43:00,645 - INFO - Processing user MIP start: 0 nodes explored in subMIP, total elapsed time 5s
2025-03-05 23:43:04,154 - INFO - User MIP start produced solution with objective 7000 (8.57s)
2025-03-05 23:43:04,536 - INFO - Loaded user MIP start with objective 7000
2025-03-05 23:43:04,537 - INFO - Processed MIP start in 8.69 seconds (6.30 work units)
2025-03-05 23:43:04,537 - INFO - 
2025-03-05 23:43:09,740 - INFO - Presolve removed 845 rows and 38 columns (presolve time = 5s) ...
2025-03-05 23:43:15,299 - INFO - Presolve removed 849 rows and 40 columns (presolve time = 11s) ...
2025-03-05 23:43:20,068 - INFO - Presolve removed 849 rows and 40 columns (presolve time = 16s) ...
2025-03-05 23:43:24,556 - INFO - Presolve removed 849 rows and 40 columns (presolve time = 20s) ...
2025-03-05 23:43:29,608 - INFO - Presolve removed 849 rows and 40 columns (presolve time = 25s) ...
2025-03-05 23:43:34,648 - INFO - Presolve removed 849 rows and 40 columns (presolve time = 30s) ...
2025-03-05 23:43:39,591 - INFO - Presolve removed 849 rows and 40 columns (presolve time = 35s) ...
2025-03-05 23:43:44,627 - INFO - Presolve removed 849 rows and 40 columns (presolve time = 40s) ...
2025-03-05 23:43:49,571 - INFO - Presolve removed 849 rows and 40 columns (presolve time = 45s) ...
2025-03-05 23:43:54,624 - INFO - Presolve removed 849 rows and 40 columns (presolve time = 50s) ...
2025-03-05 23:43:59,557 - INFO - Presolve removed 849 rows and 40 columns (presolve time = 55s) ...
2025-03-05 23:44:04,598 - INFO - Presolve removed 849 rows and 40 columns (presolve time = 60s) ...
2025-03-05 23:44:09,627 - INFO - Presolve removed 849 rows and 40 columns (presolve time = 65s) ...
2025-03-05 23:44:14,568 - INFO - Presolve removed 849 rows and 40 columns (presolve time = 70s) ...
2025-03-05 23:44:19,608 - INFO - Presolve removed 849 rows and 40 columns (presolve time = 75s) ...
2025-03-05 23:44:24,550 - INFO - Presolve removed 849 rows and 40 columns (presolve time = 80s) ...
2025-03-05 23:44:29,590 - INFO - Presolve removed 849 rows and 40 columns (presolve time = 85s) ...
2025-03-05 23:44:34,630 - INFO - Presolve removed 849 rows and 40 columns (presolve time = 90s) ...
2025-03-05 23:44:39,585 - INFO - Presolve removed 849 rows and 40 columns (presolve time = 95s) ...
2025-03-05 23:44:44,628 - INFO - Presolve removed 849 rows and 40 columns (presolve time = 100s) ...
2025-03-05 23:44:49,565 - INFO - Presolve removed 849 rows and 40 columns (presolve time = 105s) ...
2025-03-05 23:44:54,596 - INFO - Presolve removed 849 rows and 40 columns (presolve time = 110s) ...
2025-03-05 23:44:59,568 - INFO - Presolve removed 849 rows and 40 columns (presolve time = 115s) ...
2025-03-05 23:45:04,595 - INFO - Presolve removed 849 rows and 40 columns (presolve time = 120s) ...
2025-03-05 23:45:09,548 - INFO - Presolve removed 849 rows and 40 columns (presolve time = 125s) ...
2025-03-05 23:45:14,553 - INFO - Presolve removed 849 rows and 40 columns (presolve time = 130s) ...
2025-03-05 23:45:19,590 - INFO - Presolve removed 849 rows and 40 columns (presolve time = 135s) ...
2025-03-05 23:45:24,608 - INFO - Presolve removed 849 rows and 40 columns (presolve time = 140s) ...
2025-03-05 23:45:29,671 - INFO - Presolve removed 849 rows and 40 columns (presolve time = 145s) ...
2025-03-05 23:45:34,607 - INFO - Presolve removed 849 rows and 40 columns (presolve time = 150s) ...
2025-03-05 23:45:39,649 - INFO - Presolve removed 849 rows and 40 columns (presolve time = 155s) ...
2025-03-05 23:45:44,585 - INFO - Presolve removed 849 rows and 40 columns (presolve time = 160s) ...
2025-03-05 23:45:49,470 - INFO - Presolve removed 849 rows and 40 columns
2025-03-05 23:45:49,470 - INFO - Presolve time: 164.92s
2025-03-05 23:45:49,506 - INFO - Presolved: 6483976 rows, 2435795 columns, 17781229 nonzeros
2025-03-05 23:45:54,207 - INFO - Variable types: 0 continuous, 2435795 integer (2435386 binary)
2025-03-05 23:45:58,660 - INFO - 
2025-03-05 23:45:58,660 - INFO - Root simplex log...
2025-03-05 23:45:58,660 - INFO - 
2025-03-05 23:45:58,660 - INFO - Iteration    Objective       Primal Inf.    Dual Inf.      Time
2025-03-05 23:45:58,660 - INFO -        0   -1.2000000e+01   1.002200e+04   0.000000e+00    183s
2025-03-05 23:46:02,612 - INFO -    14681   -3.6379788e-12   4.957528e+05   0.000000e+00    187s
2025-03-05 23:46:07,442 - INFO -    21910    1.4392711e-03   1.159238e+05   0.000000e+00    192s
2025-03-05 23:46:13,511 - INFO -    24639    1.5680835e-03   3.775978e+04   0.000000e+00    198s
2025-03-05 23:46:16,593 - INFO -    25802    1.6192318e-03   1.674994e+05   0.000000e+00    201s
2025-03-05 23:46:21,547 - INFO -    26965    1.6691306e-03   1.780613e+05   0.000000e+00    206s
2025-03-05 23:46:25,905 - INFO -    29291    1.7760208e-03   1.926084e+04   0.000000e+00    210s
2025-03-05 23:46:31,750 - INFO -    32780    1.9036114e-03   1.982019e+04   0.000000e+00    216s
2025-03-05 23:46:37,001 - INFO -    35106    1.9624211e-03   1.979789e+04   0.000000e+00    221s
2025-03-05 23:46:42,502 - INFO -    37432    2.0161899e-03   1.284042e+04   0.000000e+00    227s
2025-03-05 23:46:46,170 - INFO -    38595    2.0322916e-03   1.652282e+04   0.000000e+00    231s
2025-03-05 23:46:53,908 - INFO -    40874    2.0555222e-03   2.635270e+04   0.000000e+00    238s
2025-03-05 23:46:56,112 - INFO -    42037    2.0610456e-03   5.124434e+03   0.000000e+00    241s
2025-03-05 23:47:00,930 - INFO -    44363    2.0684988e-03   4.258262e+03   0.000000e+00    245s
2025-03-05 23:47:06,662 - INFO -    46689    2.0737567e-03   3.393704e+03   0.000000e+00    251s
2025-03-05 23:47:14,707 - INFO -    49015    2.0773494e-03   2.543043e+03   0.000000e+00    259s
2025-03-05 23:47:18,543 - INFO -    50178    2.0791243e-03   2.528112e+03   0.000000e+00    263s
2025-03-05 23:47:21,482 - INFO -    51341    2.0805616e-03   2.871865e+03   0.000000e+00    266s
2025-03-05 23:47:32,857 - INFO -    53667    2.0830798e-03   4.245298e+03   0.000000e+00    277s
2025-03-05 23:47:39,201 - INFO -    54830    2.0842879e-03   2.483166e+03   0.000000e+00    284s
2025-03-05 23:47:45,367 - INFO -    55993    2.0855199e-03   3.090139e+03   0.000000e+00    290s
2025-03-05 23:47:50,336 - INFO -    57156    2.0867379e-03   1.268075e+03   0.000000e+00    295s
2025-03-05 23:47:56,627 - INFO -    58319    2.0878541e-03   7.770797e+03   0.000000e+00    301s
2025-03-05 23:48:04,933 - INFO -    59482    2.2346411e-03   7.789562e+02   0.000000e+00    309s
2025-03-05 23:48:16,594 - INFO -    60462    2.2486229e-03   5.456738e+02   0.000000e+00    321s
2025-03-05 23:48:28,817 - INFO -    61392    2.2554299e-03   2.555513e+03   0.000000e+00    333s
2025-03-05 23:48:40,914 - INFO -    62292    2.2596579e-03   1.525324e+02   0.000000e+00    345s
2025-03-05 23:48:52,503 - INFO -    63182    2.2617882e-03   1.720344e+02   0.000000e+00    357s
2025-03-05 23:49:04,476 - INFO -    63942    2.2628323e-03   1.126854e+02   0.000000e+00    369s
2025-03-05 23:49:16,050 - INFO -    64792    2.2634458e-03   3.353052e+00   0.000000e+00    380s
2025-03-05 23:49:19,885 - INFO -    65004    0.0000000e+00   0.000000e+00   0.000000e+00    384s
2025-03-05 23:49:19,885 - INFO - 
2025-03-05 23:49:19,885 - INFO - Root relaxation: objective 0.000000e+00, 65004 iterations, 204.74 seconds (359.44 work units)
2025-03-05 23:49:21,966 - INFO - Total elapsed time = 386.38s
2025-03-05 23:49:26,029 - INFO - 
2025-03-05 23:49:26,029 - INFO -     Nodes    |    Current Node    |     Objective Bounds      |     Work
2025-03-05 23:49:26,029 - INFO -  Expl Unexpl |  Obj  Depth IntInf | Incumbent    BestBd   Gap | It/Node Time
2025-03-05 23:49:26,029 - INFO - 
2025-03-05 23:49:26,029 - INFO - H    0     0                       0.0000000 -32000.000      -     -  390s
2025-03-05 23:50:01,707 - INFO -      0     0          -    0         0.00000    0.00000  0.00%     -  426s
2025-03-05 23:50:02,130 - INFO - 
2025-03-05 23:50:02,130 - INFO - Explored 1 nodes (87381 simplex iterations) in 426.54 seconds (478.85 work units)
2025-03-05 23:50:02,131 - INFO - Thread count was 32 (of 48 available processors)
2025-03-05 23:50:02,131 - INFO - 
2025-03-05 23:50:02,131 - INFO - Solution count 2: 0 7000 
2025-03-05 23:50:02,131 - INFO - 
2025-03-05 23:50:02,131 - INFO - Optimal solution found (tolerance 1.00e-01)
2025-03-05 23:50:02,226 - INFO - Best objective 0.000000000000e+00, best bound 0.000000000000e+00, gap 0.0000%
2025-03-05 23:50:02,226 - INFO - 
2025-03-05 23:50:02,226 - INFO - User-callback calls 3796, time in user-callback 0.03 sec
2025-03-05 23:50:02,226 - INFO - ================================================================================
2025-03-05 23:50:02,227 - INFO - OPTIMIZATION RESULTS
2025-03-05 23:50:02,241 - INFO - STATUS: Found optimal solution!
2025-03-05 23:50:02,242 - INFO - SATISFIED REQUESTS: 9600 out of 9600
2025-03-05 23:50:02,242 - INFO - SATISFACTION RATE: 100.00%
2025-03-05 23:50:02,243 - INFO - CAPACITY VIOLATIONS: 0 sections over capacity
2025-03-05 23:50:02,243 - INFO - TOTAL OVERAGES: 0 students over capacity
2025-03-05 23:50:02,244 - INFO - OBJECTIVE VALUE: 0.0
2025-03-05 23:50:02,244 - INFO -   - Missed requests penalty: 0
2025-03-05 23:50:02,244 - INFO -   - Capacity violations penalty: 0.0
2025-03-05 23:50:02,244 - INFO - RUNTIME: 426.64 seconds
2025-03-05 23:50:02,244 - INFO - NODES EXPLORED: 1.0
2025-03-05 23:50:02,244 - INFO - MIP GAP: 0.00%
2025-03-05 23:50:02,244 - ERROR - UNEXPECTED ERROR: 'gurobipy.Model' object has no attribute 'NodeFileStart'
2025-03-05 23:50:02,244 - ERROR - Traceback (most recent call last):
  File "/home/ec2-user/optimo/Optimo-MVP/main/milp_soft.py", line 486, in solve
    peak_mem = self.model.getAttr('NodeFileStart') * mem_limit_gb * 1024  # MB
  File "src/gurobipy/model.pxi", line 1855, in gurobipy.Model.getAttr
  File "src/gurobipy/attrutil.pxi", line 23, in gurobipy.__getattrinfo
AttributeError: 'gurobipy.Model' object has no attribute 'NodeFileStart'

2025-03-05 23:50:02,244 - ERROR - Error running optimization: 'gurobipy.Model' object has no attribute 'NodeFileStart'
2025-03-05 23:50:02,245 - INFO - Warning: environment still referenced so free is deferred (Continue to use WLS)
